17	4
21	20	18	25	
0	0	0	0	0	3	2	3	4	
5	4	9	10	4	3	9	17	17	
1	4	10	9	4	3	5	10	13	
1	0	1	0	1	2	6	17	
6	3	0	5	0	1	11	
175	0	1	0	8	1	7	
225	0	5	0	10	2	8	12	
125	2	2	6	0	3	15	17	17	
75	4	7	3	0	1	13	
175	9	0	4	1	1	17	
25	8	6	4	8	2	17	17	
225	9	0	7	0	2	14	17	
6	10	6	3	8	1	16	
5	1	9	1	5	2	17	17	
5	8	10	2	6	1	17	
7	0	8	0	0	2	17	17	
0	0	0	0	0	0	
